Reading model...
...model read.
creating competitive generators file...
...competitive generators recorded.
Loading data...
.. day-ahead data with real-time VRE data read.
Compiling instance...
...instance created.
Creating Offer Mitigation (model will solve as dispatch if TRUE)...
...storage offer mitigation file created
Converting model to MPEC...
...converted
NOTE: initial MIP solve with only storage competitive to get feasible solution
Solving...

Welcome to IBM(R) ILOG(R) CPLEX(R) Interactive Optimizer 12.9.0.0
  with Simplex, Mixed Integer & Barrier Optimizers
5725-A06 5725-A29 5724-Y48 5724-Y49 5724-Y54 5724-Y55 5655-Y21
Copyright IBM Corp. 1988, 2019.  All Rights Reserved.

Type 'help' for a list of available commands.
Type 'help' followed by a command name for more
information on commands.

CPLEX> Logfile 'cplex.log' closed.
Logfile 'C:\Users\Luke\Desktop\competitiveMPEC_1.16\logs\tmprpfm19yh.cplex.log' open.
CPLEX> New value for parallel optimization mode: -1
CPLEX> New value for mixed integer optimality gap tolerance: 0.01
CPLEX> New value for feasibility tolerance: 0.01
CPLEX> New value for deterministic time limit in ticks: 200000
CPLEX> Problem 'C:\Users\Luke\Desktop\competitiveMPEC_1.16\logs\tmpdbtzcu6d.pyomo.lp' read.
Read time = 0.17 sec. (13.63 ticks)
CPLEX> Problem name         : C:\Users\Luke\Desktop\competitiveMPEC_1.16\logs\tmpdbtzcu6d.pyomo.lp
Objective sense      : Maximize
Variables            :   53321  [Nneg: 49,  Box: 21806,  Free: 4368,
                                 Binary: 27098]
Objective nonzeros   :    8980
Linear constraints   :  122164  [Less: 40935,  Greater: 58612,  Equal: 22617]
  Nonzeros           :  282745
  RHS nonzeros       :   66956

Variables            : Min LB: -5000.000        Max UB: 5000.000       
Objective nonzeros   : Min   : 0.07500000       Max   : 731.8583       
Linear constraints   :
  Nonzeros           : Min   : 0.07500000       Max   : 2910000.       
  RHS nonzeros       : Min   : 0.07500000       Max   : 3000000.       
CPLEX> CPXPARAM_Parallel                                -1
CPXPARAM_Simplex_Tolerances_Feasibility          0.01
CPXPARAM_DetTimeLimit                            200000
CPXPARAM_MIP_Tolerances_MIPGap                   0.01
Tried aggregator 3 times.
MIP Presolve eliminated 89647 rows and 20455 columns.
MIP Presolve added 3348 rows and 0 columns.
MIP Presolve modified 24492 coefficients.
Aggregator did 12870 substitutions.
Reduced MIP has 22995 rows, 19368 columns, and 61350 nonzeros.
Reduced MIP has 7570 binaries, 0 generals, 0 SOSs, and 0 indicators.
Presolve time = 0.22 sec. (163.68 ticks)
Probing fixed 432 vars, tightened 5762 bounds.
Probing time = 0.16 sec. (29.95 ticks)
Tried aggregator 2 times.
MIP Presolve eliminated 968 rows and 873 columns.
MIP Presolve modified 9893 coefficients.
Aggregator did 45 substitutions.
Reduced MIP has 21982 rows, 18450 columns, and 58381 nonzeros.
Reduced MIP has 7136 binaries, 0 generals, 0 SOSs, and 0 indicators.
Presolve time = 0.13 sec. (138.99 ticks)
Probing fixed 0 vars, tightened 13 bounds.
Probing time = 0.05 sec. (14.33 ticks)
Clique table members: 47863.
MIP emphasis: balance optimality and feasibility.
MIP search method: dynamic search.
Parallel mode: opportunistic, using up to 24 threads.
Root relaxation solution time = 0.31 sec. (270.10 ticks)

        Nodes                                         Cuts/
   Node  Left     Objective  IInf  Best Integer    Best Bound    ItCnt     Gap

      0     0        0.0000  1231                      0.0000     6355         
      0     0        0.0000    46                    Cuts: 86     6415         
      0     0        0.0000    39                    Cuts: 64     6429         
      0     0        0.0000    28                    Cuts: 49     6443         
      0     0        0.0000    28                    Cuts: 47     6450         
      0     0        0.0000    31                 Flowcuts: 8     6481         
      0    15    infeasible                       Impl Bds: 2     6880         
Elapsed time = 6.39 sec. (4061.84 ticks, tree = 0.03 MB, solutions = 0)
    417   173   -14310.3554    10                  -3367.2435    10648         
*   643   354      integral     0   -26403.1575    -3367.2435    17293   87.25%
   1055   294        cutoff         -20633.1553    -3367.2435    27619   83.68%
   1468   448        cutoff         -15743.9757    -3367.2435    34222   78.61%
   2068   641    -8317.0299    26   -15743.9757    -5257.2094    45268   66.61%
   2802   901        cutoff         -14380.1127    -6556.6051    50203   54.41%
   3467   916   -10989.3084    45   -14380.1127    -7106.4023    52953   50.58%
   4107  1141        cutoff         -14380.1127    -7321.3640    60424   49.09%
   4786  1185        cutoff         -14380.1127    -7321.3640    70846   49.09%
*  6121  1287      integral     0   -14069.4973    -7430.4467    79806   47.19%
Elapsed time = 13.53 sec. (6666.23 ticks, tree = 5.89 MB, solutions = 5)
*  6276  1278      integral     0   -14051.1010    -7430.4467    79531   47.12%

GUB cover cuts applied:  2
Clique cuts applied:  636
Cover cuts applied:  59
Implied bound cuts applied:  804
Flow cuts applied:  216
Mixed integer rounding cuts applied:  254
Gomory fractional cuts applied:  73

Root node processing (before b&c):
  Real time             =    6.08 sec. (4054.13 ticks)
Parallel b&c, 24 threads:
  Real time             =   12.55 sec. (6031.70 ticks)
  Sync time (average)   =    0.16 sec.
  Wait time (average)   =    0.00 sec.
                          ------------
Total (root+branch&cut) =   18.63 sec. (10085.82 ticks)

Solution pool: 6 solutions saved.

MIP - Integer optimal, tolerance (0.01/1e-06):  Objective = -1.4051100998e+04
Current MIP best bound = -1.3938518265e+04 (gap = 112.583, 0.80%)
Solution time =   18.64 sec.  Iterations = 101759  Nodes = 8000 (1421)
Deterministic time = 10085.98 ticks  (541.06 ticks/sec)

CPLEX> Incumbent solution written to file 'C:\Users\Luke\Desktop\competitiveMPEC_1.16\logs\tmpogu6hr9i.cplex.sol'.
CPLEX> NOTE: no warmstart specified for MIP iteration, default behavior is true
NOTE: resolving with all competitive generators using storage-only solution to warmstart
Solving...

Welcome to IBM(R) ILOG(R) CPLEX(R) Interactive Optimizer 12.9.0.0
  with Simplex, Mixed Integer & Barrier Optimizers
5725-A06 5725-A29 5724-Y48 5724-Y49 5724-Y54 5724-Y55 5655-Y21
Copyright IBM Corp. 1988, 2019.  All Rights Reserved.

Type 'help' for a list of available commands.
Type 'help' followed by a command name for more
information on commands.

CPLEX> Logfile 'cplex.log' closed.
Logfile 'C:\Users\Luke\Desktop\competitiveMPEC_1.16\logs\tmpp1tku834.cplex.log' open.
CPLEX> New value for parallel optimization mode: -1
CPLEX> New value for mixed integer optimality gap tolerance: 0.01
CPLEX> New value for feasibility tolerance: 0.01
CPLEX> New value for deterministic time limit in ticks: 200000
CPLEX> Problem 'C:\Users\Luke\Desktop\competitiveMPEC_1.16\logs\tmpgs9vrn9r.pyomo.lp' read.
Read time = 0.20 sec. (13.63 ticks)
CPLEX> MIP start file 'C:\Users\Luke\Desktop\competitiveMPEC_1.16\logs\tmp9qe17lbb.cplex.mst' read.
CPLEX> Problem name         : C:\Users\Luke\Desktop\competitiveMPEC_1.16\logs\tmpgs9vrn9r.pyomo.lp
Objective sense      : Maximize
Variables            :   53321  [Nneg: 49,  Box: 21806,  Free: 4368,
                                 Binary: 27098]
Objective nonzeros   :    8956
Linear constraints   :  122164  [Less: 40935,  Greater: 58612,  Equal: 22617]
  Nonzeros           :  282745
  RHS nonzeros       :   66956

Variables            : Min LB: -5000.000        Max UB: 5000.000       
Objective nonzeros   : Min   : 0.07500000       Max   : 731.8583       
Linear constraints   :
  Nonzeros           : Min   : 0.07500000       Max   : 2910000.       
  RHS nonzeros       : Min   : 0.07500000       Max   : 3000000.       
CPLEX> CPXPARAM_Parallel                                -1
CPXPARAM_Simplex_Tolerances_Feasibility          0.01
CPXPARAM_DetTimeLimit                            200000
CPXPARAM_MIP_Tolerances_MIPGap                   0.01
Warning:  No solution found from 1 MIP starts.
Retaining values of one MIP start for possible repair.
Tried aggregator 3 times.
MIP Presolve eliminated 89647 rows and 20455 columns.
MIP Presolve added 3348 rows and 0 columns.
MIP Presolve modified 24492 coefficients.
Aggregator did 12870 substitutions.
Reduced MIP has 22995 rows, 19368 columns, and 61350 nonzeros.
Reduced MIP has 7570 binaries, 0 generals, 0 SOSs, and 0 indicators.
Presolve time = 0.22 sec. (163.68 ticks)
Probing fixed 432 vars, tightened 5762 bounds.
Probing time = 0.16 sec. (29.95 ticks)
Tried aggregator 2 times.
MIP Presolve eliminated 968 rows and 873 columns.
MIP Presolve modified 9893 coefficients.
Aggregator did 45 substitutions.
Reduced MIP has 21982 rows, 18450 columns, and 58381 nonzeros.
Reduced MIP has 7136 binaries, 0 generals, 0 SOSs, and 0 indicators.
Presolve time = 0.13 sec. (138.99 ticks)
Probing fixed 0 vars, tightened 13 bounds.
Probing time = 0.05 sec. (14.33 ticks)
Clique table members: 47863.
MIP emphasis: balance optimality and feasibility.
MIP search method: dynamic search.
Parallel mode: opportunistic, using up to 24 threads.
Root relaxation solution time = 0.34 sec. (290.53 ticks)

        Nodes                                         Cuts/
   Node  Left     Objective  IInf  Best Integer    Best Bound    ItCnt     Gap

      0     0    57070.9527  1324                  57070.9527     6740         
      0     0    57049.8464   288                   Cuts: 718     6975         
      0     0    57049.0424   189                   Cuts: 493     7103         
      0     0    57048.1546   163                   Cuts: 253     7171         
      0     0    57048.1546   156                    Cuts: 75     7179         
      0     0    57048.1546   150                    Cuts: 71     7185         
      0     0    57048.1546   145                    Cuts: 71     7191         
Repair heuristic found nothing.
      0     2    57048.1546    92                     Cuts: 9     7191         
Elapsed time = 6.86 sec. (4001.81 ticks, tree = 0.02 MB, solutions = 0)
    466    94    56818.2319    69                  57018.1882     9007         
    893   917    56914.0500    54                  57018.1882    22781         
   1429   998    47380.7264    32                  57018.1882    23574         
*  1462  1030      integral     0    53586.1294    57018.1882    24233    6.40%
   1957   752    56643.4727   104    53665.9662    57018.1882    28128    6.25%
   2421   927    53748.1336    57    53665.9662    57018.1882    35644    6.25%
   3011  1158    55014.8727    19    53665.9662    57018.1618    38343    6.25%
   3750  1378    54816.6005    48    53665.9662    57006.7627    40703    6.23%
   4657  1919    54797.1431    51    53665.9662    57006.7627    44828    6.23%
   5267  2867    infeasible          53665.9662    55151.9610    57133    2.77%
Elapsed time = 18.84 sec. (9372.32 ticks, tree = 269.67 MB, solutions = 2)

GUB cover cuts applied:  1
Clique cuts applied:  4
Cover cuts applied:  3
Implied bound cuts applied:  19
Flow cuts applied:  65
Mixed integer rounding cuts applied:  27
Gomory fractional cuts applied:  17

Root node processing (before b&c):
  Real time             =    6.34 sec. (3961.00 ticks)
Parallel b&c, 24 threads:
  Real time             =   12.55 sec. (5627.76 ticks)
  Sync time (average)   =    0.80 sec.
  Wait time (average)   =    0.06 sec.
                          ------------
Total (root+branch&cut) =   18.89 sec. (9588.76 ticks)

Solution pool: 2 solutions saved.

MIP - Integer optimal, tolerance (0.01/1e-06):  Objective =  5.3665966213e+04
Current MIP best bound =  5.4164648665e+04 (gap = 498.682, 0.93%)
Solution time =   18.91 sec.  Iterations = 57133  Nodes = 5275 (1434)
Deterministic time = 9588.91 ticks  (507.19 ticks/sec)

CPLEX> Incumbent solution written to file 'C:\Users\Luke\Desktop\competitiveMPEC_1.16\logs\tmpb6t4ypyo.cplex.sol'.
CPLEX> Exporting results... 
